(set-info :smt-lib-version 2.6)
(set-logic QF_NIA)
(set-info :source |
Generated by: Cristina Borralleras, Daniel Larraz, Albert Oliveras, Enric Rodriguez-Carbonell, Albert Rubio
Generated on: 2017-04-27
Generator: VeryMax
Application: Termination proving
Target solver: barcelogic
|)
(set-info :license "https://creativecommons.org/licenses/by/4.0/")
(set-info :category "industrial")
(set-info :status sat)
(declare-fun Nl5arg11 () Int)
(declare-fun Nl5arg21 () Int)
(declare-fun Nl5arg31 () Int)
(declare-fun Nl5arg41 () Int)
(declare-fun Nl5arg51 () Int)
(declare-fun Nl5arg61 () Int)
(declare-fun lam0n0 () Int)
(declare-fun lam0n1 () Int)
(declare-fun lam0n2 () Int)
(declare-fun lam0n3 () Int)
(declare-fun lam0n4 () Int)
(declare-fun lam0n5 () Int)
(declare-fun lam0n6 () Int)
(declare-fun lam0n7 () Int)
(declare-fun lam0n8 () Int)
(declare-fun lam0n9 () Int)
(declare-fun Nl5CT1 () Int)
(declare-fun lam1n0 () Int)
(declare-fun lam1n1 () Int)
(declare-fun lam1n2 () Int)
(declare-fun lam1n3 () Int)
(declare-fun lam1n4 () Int)
(declare-fun lam1n5 () Int)
(declare-fun lam1n6 () Int)
(declare-fun lam1n7 () Int)
(declare-fun lam1n8 () Int)
(declare-fun lam1n9 () Int)
(declare-fun lam2n0 () Int)
(declare-fun lam2n1 () Int)
(declare-fun lam2n2 () Int)
(declare-fun lam2n3 () Int)
(declare-fun lam2n4 () Int)
(declare-fun lam2n5 () Int)
(declare-fun lam2n6 () Int)
(declare-fun lam2n7 () Int)
(declare-fun lam3n0 () Int)
(declare-fun lam3n1 () Int)
(declare-fun lam3n2 () Int)
(declare-fun lam3n3 () Int)
(declare-fun lam3n4 () Int)
(declare-fun lam3n5 () Int)
(declare-fun lam3n6 () Int)
(declare-fun lam3n7 () Int)
(declare-fun lam4n0 () Int)
(declare-fun lam4n1 () Int)
(declare-fun lam4n2 () Int)
(declare-fun lam4n3 () Int)
(declare-fun lam4n4 () Int)
(declare-fun lam4n5 () Int)
(declare-fun lam4n6 () Int)
(declare-fun lam4n7 () Int)
(declare-fun lam4n8 () Int)
(declare-fun lam4n9 () Int)
(declare-fun lam5n0 () Int)
(declare-fun lam5n1 () Int)
(declare-fun lam5n2 () Int)
(declare-fun lam5n3 () Int)
(declare-fun lam5n4 () Int)
(declare-fun lam5n5 () Int)
(declare-fun lam5n6 () Int)
(declare-fun lam5n7 () Int)
(declare-fun lam5n8 () Int)
(declare-fun lam5n9 () Int)
(declare-fun lam6n0 () Int)
(declare-fun lam6n1 () Int)
(declare-fun lam6n2 () Int)
(declare-fun lam6n3 () Int)
(declare-fun lam6n4 () Int)
(declare-fun lam6n5 () Int)
(declare-fun lam6n6 () Int)
(declare-fun lam6n7 () Int)
(declare-fun lam6n8 () Int)
(declare-fun lam6n9 () Int)
(declare-fun lam6n10 () Int)
(declare-fun lam6n11 () Int)
(declare-fun lam6n12 () Int)
(declare-fun lam6n13 () Int)
(declare-fun lam6n14 () Int)
(declare-fun lam6n15 () Int)
(declare-fun lam6n16 () Int)
(declare-fun undef1 () Int)
(declare-fun undef2 () Int)
(declare-fun undef48 () Int)
(declare-fun undef49 () Int)
(declare-fun undef97 () Int)
(declare-fun undef98 () Int)
(declare-fun undef3 () Int)
(declare-fun undef4 () Int)
(declare-fun undef7 () Int)
(declare-fun undef5 () Int)
(declare-fun undef54 () Int)
(declare-fun undef50 () Int)
(declare-fun undef51 () Int)
(declare-fun undef52 () Int)
(declare-fun undef53 () Int)
(declare-fun lam10n0 () Int)
(declare-fun lam10n1 () Int)
(declare-fun lam10n2 () Int)
(declare-fun lam10n3 () Int)
(declare-fun lam10n4 () Int)
(declare-fun lam10n5 () Int)
(declare-fun lam10n6 () Int)
(declare-fun lam10n7 () Int)
(declare-fun lam10n8 () Int)
(declare-fun lam10n9 () Int)
(declare-fun RFN1_CT () Int)
(declare-fun RFN1_arg1 () Int)
(declare-fun RFN1_arg2 () Int)
(declare-fun RFN1_arg3 () Int)
(declare-fun RFN1_arg4 () Int)
(declare-fun RFN1_arg5 () Int)
(declare-fun RFN1_arg6 () Int)
(declare-fun lam14n0 () Int)
(declare-fun lam14n1 () Int)
(declare-fun lam14n2 () Int)
(declare-fun lam14n3 () Int)
(declare-fun lam14n4 () Int)
(declare-fun lam14n5 () Int)
(declare-fun lam14n6 () Int)
(declare-fun lam14n7 () Int)
(declare-fun lam18n0 () Int)
(declare-fun lam18n1 () Int)
(declare-fun lam18n2 () Int)
(declare-fun lam18n3 () Int)
(declare-fun lam18n4 () Int)
(declare-fun lam18n5 () Int)
(declare-fun lam18n6 () Int)
(declare-fun lam18n7 () Int)
(declare-fun lam18n8 () Int)
(declare-fun lam18n9 () Int)
(declare-fun lam8n0 () Int)
(declare-fun lam8n1 () Int)
(declare-fun lam8n2 () Int)
(declare-fun lam8n3 () Int)
(declare-fun lam8n4 () Int)
(declare-fun lam8n5 () Int)
(declare-fun lam8n6 () Int)
(declare-fun lam8n7 () Int)
(declare-fun lam8n8 () Int)
(declare-fun lam8n9 () Int)
(declare-fun lam9n0 () Int)
(declare-fun lam9n1 () Int)
(declare-fun lam9n2 () Int)
(declare-fun lam9n3 () Int)
(declare-fun lam9n4 () Int)
(declare-fun lam9n5 () Int)
(declare-fun lam9n6 () Int)
(declare-fun lam9n7 () Int)
(declare-fun lam9n8 () Int)
(declare-fun lam9n9 () Int)
(declare-fun lam12n0 () Int)
(declare-fun lam12n1 () Int)
(declare-fun lam12n2 () Int)
(declare-fun lam12n3 () Int)
(declare-fun lam12n4 () Int)
(declare-fun lam12n5 () Int)
(declare-fun lam12n6 () Int)
(declare-fun lam12n7 () Int)
(declare-fun lam13n0 () Int)
(declare-fun lam13n1 () Int)
(declare-fun lam13n2 () Int)
(declare-fun lam13n3 () Int)
(declare-fun lam13n4 () Int)
(declare-fun lam13n5 () Int)
(declare-fun lam13n6 () Int)
(declare-fun lam13n7 () Int)
(declare-fun lam16n0 () Int)
(declare-fun lam16n1 () Int)
(declare-fun lam16n2 () Int)
(declare-fun lam16n3 () Int)
(declare-fun lam16n4 () Int)
(declare-fun lam16n5 () Int)
(declare-fun lam16n6 () Int)
(declare-fun lam16n7 () Int)
(declare-fun lam16n8 () Int)
(declare-fun lam16n9 () Int)
(declare-fun lam17n0 () Int)
(declare-fun lam17n1 () Int)
(declare-fun lam17n2 () Int)
(declare-fun lam17n3 () Int)
(declare-fun lam17n4 () Int)
(declare-fun lam17n5 () Int)
(declare-fun lam17n6 () Int)
(declare-fun lam17n7 () Int)
(declare-fun lam17n8 () Int)
(declare-fun lam17n9 () Int)
(declare-fun lam7n0 () Int)
(declare-fun lam7n1 () Int)
(declare-fun lam7n2 () Int)
(declare-fun lam7n3 () Int)
(declare-fun lam7n4 () Int)
(declare-fun lam7n5 () Int)
(declare-fun lam7n6 () Int)
(declare-fun lam7n7 () Int)
(declare-fun lam7n8 () Int)
(declare-fun lam7n9 () Int)
(declare-fun lam11n0 () Int)
(declare-fun lam11n1 () Int)
(declare-fun lam11n2 () Int)
(declare-fun lam11n3 () Int)
(declare-fun lam11n4 () Int)
(declare-fun lam11n5 () Int)
(declare-fun lam11n6 () Int)
(declare-fun lam11n7 () Int)
(declare-fun lam15n0 () Int)
(declare-fun lam15n1 () Int)
(declare-fun lam15n2 () Int)
(declare-fun lam15n3 () Int)
(declare-fun lam15n4 () Int)
(declare-fun lam15n5 () Int)
(declare-fun lam15n6 () Int)
(declare-fun lam15n7 () Int)
(declare-fun lam15n8 () Int)
(declare-fun lam15n9 () Int)
(assert ( and ( <= ( - 1 ) Nl5arg11 ) ( <= Nl5arg11 1 ) ( <= ( - 1 ) Nl5arg21 ) ( <= Nl5arg21 1 ) ( <= ( - 1 ) Nl5arg31 ) ( <= Nl5arg31 1 ) ( <= ( - 1 ) Nl5arg41 ) ( <= Nl5arg41 1 ) ( <= ( - 1 ) Nl5arg51 ) ( <= Nl5arg51 1 ) ( <= ( - 1 ) Nl5arg61 ) ( <= Nl5arg61 1 ) ))
(assert ( or ( and ( >= lam0n0 0 ) ( >= lam0n1 0 ) ( >= lam0n2 0 ) ( >= lam0n3 0 ) ( >= lam0n4 0 ) ( >= lam0n5 0 ) ( >= lam0n6 0 ) ( >= lam0n7 0 ) ( >= lam0n8 0 ) ( >= lam0n9 0 ) ( > ( + ( * 1 lam0n0 ) ( * 1 lam0n1 ) ( * 1 lam0n2 ) ( * 2 lam0n8 ) ( * Nl5CT1 lam0n9 ) ( - 1 ) ) 0 ) ( = ( + ( * ( - 1 ) lam0n3 ) ( * ( - 1 ) lam0n4 ) ( * ( - 1 ) lam0n8 ) ( * Nl5arg11 lam0n9 ) ) 0 ) ( = ( + ( * ( - 1 ) lam0n5 ) ( * ( - 1 ) lam0n8 ) ( * Nl5arg21 lam0n9 ) ) 0 ) ( = ( * Nl5arg31 lam0n9 ) 0 ) ( = ( * Nl5arg41 lam0n9 ) 0 ) ( = ( * Nl5arg51 lam0n9 ) 0 ) ( = ( * Nl5arg61 lam0n9 ) 0 ) ( = ( + ( * ( - 1 ) lam0n0 ) ( * ( - 1 ) lam0n1 ) ( * ( - 1 ) lam0n2 ) ( * 1 lam0n4 ) ) 0 ) ( = ( + ( * 1 lam0n1 ) ( * ( - 1 ) lam0n6 ) ) 0 ) ( = ( + ( * 1 lam0n2 ) ( * ( - 1 ) lam0n7 ) ) 0 ) ) ( and ( >= lam1n0 0 ) ( >= lam1n1 0 ) ( >= lam1n2 0 ) ( >= lam1n3 0 ) ( >= lam1n4 0 ) ( >= lam1n5 0 ) ( >= lam1n6 0 ) ( >= lam1n7 0 ) ( >= lam1n8 0 ) ( >= lam1n9 0 ) ( > ( + ( * 1 lam1n0 ) ( * 1 lam1n1 ) ( * 1 lam1n2 ) ( * 2 lam1n8 ) ( * Nl5CT1 lam1n9 ) ( - 1 ( + ( + ( + ( + ( + ( + Nl5CT1 ( * Nl5arg11 0 ) ) ( * Nl5arg21 0 ) ) ( * Nl5arg31 0 ) ) ( * Nl5arg41 0 ) ) ( * Nl5arg51 0 ) ) ( * Nl5arg61 0 ) ) ) ) 0 ) ( = ( + ( * ( - 1 ) lam1n3 ) ( * ( - 1 ) lam1n4 ) ( * ( - 1 ) lam1n8 ) ( * Nl5arg11 lam1n9 ) ) 0 ) ( = ( + ( * ( - 1 ) lam1n5 ) ( * ( - 1 ) lam1n8 ) ( * Nl5arg21 lam1n9 ) ) 0 ) ( = ( * Nl5arg31 lam1n9 ) 0 ) ( = ( * Nl5arg41 lam1n9 ) 0 ) ( = ( * Nl5arg51 lam1n9 ) 0 ) ( = ( * Nl5arg61 lam1n9 ) 0 ) ( = ( + ( * ( - 1 ) lam1n0 ) ( * ( - 1 ) lam1n1 ) ( * ( - 1 ) lam1n2 ) ( * 1 lam1n4 ) ) 0 ) ( = ( + ( * 1 lam1n1 ) ( * ( - 1 ) lam1n6 ) ( - ( + 0 ( * Nl5arg11 1 ) ) ) ) 0 ) ( = ( + ( * 1 lam1n2 ) ( * ( - 1 ) lam1n7 ) ( - ( + 0 ( * Nl5arg21 1 ) ) ) ) 0 ) ( = ( - ( + 0 ( * Nl5arg31 1 ) ) ) 0 ) ( = ( - ( + 0 ( * Nl5arg41 1 ) ) ) 0 ) ( = ( - ( + 0 ( * Nl5arg51 1 ) ) ) 0 ) ( = ( - ( + 0 ( * Nl5arg61 1 ) ) ) 0 ) ) ))
(assert ( or ( and ( >= lam2n0 0 ) ( >= lam2n1 0 ) ( >= lam2n2 0 ) ( >= lam2n3 0 ) ( >= lam2n4 0 ) ( >= lam2n5 0 ) ( >= lam2n6 0 ) ( >= lam2n7 0 ) ( > ( + ( * 1 lam2n0 ) ( * 1 lam2n1 ) ( * 1 lam2n2 ) ( * 2 lam2n6 ) ( * Nl5CT1 lam2n7 ) ( - 1 ) ) 0 ) ( = ( + ( * ( - 1 ) lam2n3 ) ( * ( - 1 ) lam2n6 ) ( * Nl5arg11 lam2n7 ) ) 0 ) ( = ( + ( * ( - 1 ) lam2n0 ) ( * ( - 1 ) lam2n1 ) ( * ( - 1 ) lam2n2 ) ( * ( - 1 ) lam2n6 ) ( * Nl5arg21 lam2n7 ) ) 0 ) ( = ( * Nl5arg31 lam2n7 ) 0 ) ( = ( * Nl5arg41 lam2n7 ) 0 ) ( = ( * Nl5arg51 lam2n7 ) 0 ) ( = ( * Nl5arg61 lam2n7 ) 0 ) ( = ( + ( * 1 lam2n1 ) ( * ( - 1 ) lam2n4 ) ) 0 ) ( = ( + ( * 1 lam2n2 ) ( * ( - 1 ) lam2n5 ) ) 0 ) ) ( and ( >= lam3n0 0 ) ( >= lam3n1 0 ) ( >= lam3n2 0 ) ( >= lam3n3 0 ) ( >= lam3n4 0 ) ( >= lam3n5 0 ) ( >= lam3n6 0 ) ( >= lam3n7 0 ) ( > ( + ( * 1 lam3n0 ) ( * 1 lam3n1 ) ( * 1 lam3n2 ) ( * 2 lam3n6 ) ( * Nl5CT1 lam3n7 ) ( - 1 ( + ( + ( + ( + ( + ( + Nl5CT1 ( * Nl5arg11 0 ) ) ( * Nl5arg21 0 ) ) ( * Nl5arg31 0 ) ) ( * Nl5arg41 0 ) ) ( * Nl5arg51 0 ) ) ( * Nl5arg61 0 ) ) ) ) 0 ) ( = ( + ( * ( - 1 ) lam3n3 ) ( * ( - 1 ) lam3n6 ) ( * Nl5arg11 lam3n7 ) ) 0 ) ( = ( + ( * ( - 1 ) lam3n0 ) ( * ( - 1 ) lam3n1 ) ( * ( - 1 ) lam3n2 ) ( * ( - 1 ) lam3n6 ) ( * Nl5arg21 lam3n7 ) ) 0 ) ( = ( * Nl5arg31 lam3n7 ) 0 ) ( = ( * Nl5arg41 lam3n7 ) 0 ) ( = ( * Nl5arg51 lam3n7 ) 0 ) ( = ( * Nl5arg61 lam3n7 ) 0 ) ( = ( + ( * 1 lam3n1 ) ( * ( - 1 ) lam3n4 ) ( - ( + 0 ( * Nl5arg11 1 ) ) ) ) 0 ) ( = ( + ( * 1 lam3n2 ) ( * ( - 1 ) lam3n5 ) ( - ( + 0 ( * Nl5arg21 1 ) ) ) ) 0 ) ( = ( - ( + 0 ( * Nl5arg31 1 ) ) ) 0 ) ( = ( - ( + 0 ( * Nl5arg41 1 ) ) ) 0 ) ( = ( - ( + 0 ( * Nl5arg51 1 ) ) ) 0 ) ( = ( - ( + 0 ( * Nl5arg61 1 ) ) ) 0 ) ) ))
(assert ( or ( and ( >= lam4n0 0 ) ( >= lam4n1 0 ) ( >= lam4n2 0 ) ( >= lam4n3 0 ) ( >= lam4n4 0 ) ( >= lam4n5 0 ) ( >= lam4n6 0 ) ( >= lam4n7 0 ) ( >= lam4n8 0 ) ( >= lam4n9 0 ) ( > ( + ( * 1 lam4n0 ) ( * 1 lam4n1 ) ( * 1 lam4n2 ) ( * 1 lam4n3 ) ( * 2 lam4n8 ) ( * Nl5CT1 lam4n9 ) ( - 1 ) ) 0 ) ( = ( + ( * ( - 1 ) lam4n4 ) ( * ( - 1 ) lam4n5 ) ( * ( - 1 ) lam4n8 ) ( * Nl5arg11 lam4n9 ) ) 0 ) ( = ( + ( * ( - 1 ) lam4n0 ) ( * ( - 1 ) lam4n8 ) ( * Nl5arg21 lam4n9 ) ) 0 ) ( = ( * Nl5arg31 lam4n9 ) 0 ) ( = ( * Nl5arg41 lam4n9 ) 0 ) ( = ( * Nl5arg51 lam4n9 ) 0 ) ( = ( * Nl5arg61 lam4n9 ) 0 ) ( = ( + ( * 1 lam4n1 ) ( * ( - 1 ) lam4n6 ) ) 0 ) ( = ( + ( * 1 lam4n2 ) ( * ( - 1 ) lam4n7 ) ) 0 ) ( = ( + ( * ( - 1 ) lam4n1 ) ( * ( - 1 ) lam4n2 ) ( * ( - 1 ) lam4n3 ) ( * 1 lam4n5 ) ) 0 ) ) ( and ( >= lam5n0 0 ) ( >= lam5n1 0 ) ( >= lam5n2 0 ) ( >= lam5n3 0 ) ( >= lam5n4 0 ) ( >= lam5n5 0 ) ( >= lam5n6 0 ) ( >= lam5n7 0 ) ( >= lam5n8 0 ) ( >= lam5n9 0 ) ( > ( + ( * 1 lam5n0 ) ( * 1 lam5n1 ) ( * 1 lam5n2 ) ( * 1 lam5n3 ) ( * 2 lam5n8 ) ( * Nl5CT1 lam5n9 ) ( - 1 ( + ( + ( + ( + ( + ( + Nl5CT1 ( * Nl5arg11 0 ) ) ( * Nl5arg21 0 ) ) ( * Nl5arg31 0 ) ) ( * Nl5arg41 0 ) ) ( * Nl5arg51 0 ) ) ( * Nl5arg61 0 ) ) ) ) 0 ) ( = ( + ( * ( - 1 ) lam5n4 ) ( * ( - 1 ) lam5n5 ) ( * ( - 1 ) lam5n8 ) ( * Nl5arg11 lam5n9 ) ) 0 ) ( = ( + ( * ( - 1 ) lam5n0 ) ( * ( - 1 ) lam5n8 ) ( * Nl5arg21 lam5n9 ) ) 0 ) ( = ( * Nl5arg31 lam5n9 ) 0 ) ( = ( * Nl5arg41 lam5n9 ) 0 ) ( = ( * Nl5arg51 lam5n9 ) 0 ) ( = ( * Nl5arg61 lam5n9 ) 0 ) ( = ( + ( * 1 lam5n1 ) ( * ( - 1 ) lam5n6 ) ( - ( + 0 ( * Nl5arg11 1 ) ) ) ) 0 ) ( = ( + ( * 1 lam5n2 ) ( * ( - 1 ) lam5n7 ) ( - ( + 0 ( * Nl5arg21 1 ) ) ) ) 0 ) ( = ( - ( + 0 ( * Nl5arg31 1 ) ) ) 0 ) ( = ( - ( + 0 ( * Nl5arg41 1 ) ) ) 0 ) ( = ( - ( + 0 ( * Nl5arg51 1 ) ) ) 0 ) ( = ( - ( + 0 ( * Nl5arg61 1 ) ) ) 0 ) ( = ( + ( * ( - 1 ) lam5n1 ) ( * ( - 1 ) lam5n2 ) ( * ( - 1 ) lam5n3 ) ( * 1 lam5n5 ) ) 0 ) ) ))
(assert ( and ( <= ( + 1 ( * ( - 1 ) undef1 ) ) 0 ) ( <= ( + 1 ( * ( - 1 ) undef2 ) ) 0 ) ( <= ( + 1 ( * ( - 1 ) undef2 ) undef48 ) 0 ) ( <= ( + 1 ( * ( - 1 ) undef2 ) undef49 ) 0 ) ( <= ( + 1 ( * ( - 1 ) undef97 ) ) 0 ) ( <= ( + 1 ( * ( - 1 ) undef98 ) ) 0 ) ( <= ( + undef1 ( * ( - 1 ) undef97 ) ) 0 ) ( <= ( * ( - 1 ) undef3 ) 0 ) ( <= ( + ( * ( - 1 ) undef3 ) undef49 ) 0 ) ( <= ( * ( - 1 ) undef4 ) 0 ) ( <= ( + ( * ( - 1 ) undef4 ) undef48 ) 0 ) ( <= ( * ( - 1 ) undef7 ) 0 ) ( <= ( * ( - 1 ) undef48 ) 0 ) ( <= ( * ( - 1 ) undef49 ) 0 ) ( <= ( + 2 ( * ( - 1 ) undef2 ) undef5 ) 0 ) ( not ( <= ( + ( - 1 ) undef48 undef49 ) 0 ) ) ( <= ( + 2 ( * ( - 1 ) undef54 ) ) 0 ) ( <= ( + ( + ( + ( + ( + ( + ( + Nl5CT1 ( * Nl5arg11 0 ) ) ( * Nl5arg21 0 ) ) ( * Nl5arg31 0 ) ) ( * Nl5arg41 0 ) ) ( * Nl5arg51 0 ) ) ( * Nl5arg61 0 ) ) ( * ( + 0 ( * Nl5arg11 1 ) ) undef48 ) ( * ( + 0 ( * Nl5arg21 1 ) ) undef49 ) ( * ( + 0 ( * Nl5arg31 1 ) ) undef50 ) ( * ( + 0 ( * Nl5arg41 1 ) ) undef51 ) ( * ( + 0 ( * Nl5arg51 1 ) ) undef52 ) ( * ( + 0 ( * Nl5arg61 1 ) ) undef53 ) ) 0 ) ))
(assert ( or ( and ( and ( and ( >= lam10n0 0 ) ( >= lam10n1 0 ) ( >= lam10n2 0 ) ( >= lam10n3 0 ) ( >= lam10n4 0 ) ( >= lam10n5 0 ) ( >= lam10n6 0 ) ( >= lam10n7 0 ) ( >= lam10n8 0 ) ( >= lam10n9 0 ) ( > ( + ( * 1 lam10n0 ) ( * 1 lam10n1 ) ( * 1 lam10n2 ) ( * 2 lam10n8 ) ( * Nl5CT1 lam10n9 ) ( - 1 ( - ( + ( + ( + ( + ( + ( + RFN1_CT ( * RFN1_arg1 0 ) ) ( * RFN1_arg2 0 ) ) ( * RFN1_arg3 0 ) ) ( * RFN1_arg4 0 ) ) ( * RFN1_arg5 0 ) ) ( * RFN1_arg6 0 ) ) RFN1_CT ) ) ) 0 ) ( = ( + ( * ( - 1 ) lam10n3 ) ( * ( - 1 ) lam10n4 ) ( * ( - 1 ) lam10n8 ) ( * Nl5arg11 lam10n9 ) ( - ( - RFN1_arg1 ) ) ) 0 ) ( = ( + ( * ( - 1 ) lam10n5 ) ( * ( - 1 ) lam10n8 ) ( * Nl5arg21 lam10n9 ) ( - ( - RFN1_arg2 ) ) ) 0 ) ( = ( + ( * Nl5arg31 lam10n9 ) ( - ( - RFN1_arg3 ) ) ) 0 ) ( = ( + ( * Nl5arg41 lam10n9 ) ( - ( - RFN1_arg4 ) ) ) 0 ) ( = ( + ( * Nl5arg51 lam10n9 ) ( - ( - RFN1_arg5 ) ) ) 0 ) ( = ( + ( * Nl5arg61 lam10n9 ) ( - ( - RFN1_arg6 ) ) ) 0 ) ( = ( + ( * ( - 1 ) lam10n0 ) ( * ( - 1 ) lam10n1 ) ( * ( - 1 ) lam10n2 ) ( * 1 lam10n4 ) ) 0 ) ( = ( + ( * 1 lam10n1 ) ( * ( - 1 ) lam10n6 ) ( - ( + 0 ( * RFN1_arg1 1 ) ) ) ) 0 ) ( = ( + ( * 1 lam10n2 ) ( * ( - 1 ) lam10n7 ) ( - ( + 0 ( * RFN1_arg2 1 ) ) ) ) 0 ) ( = ( - ( + 0 ( * RFN1_arg3 1 ) ) ) 0 ) ( = ( - ( + 0 ( * RFN1_arg4 1 ) ) ) 0 ) ( = ( - ( + 0 ( * RFN1_arg5 1 ) ) ) 0 ) ( = ( - ( + 0 ( * RFN1_arg6 1 ) ) ) 0 ) ) ( and ( >= lam14n0 0 ) ( >= lam14n1 0 ) ( >= lam14n2 0 ) ( >= lam14n3 0 ) ( >= lam14n4 0 ) ( >= lam14n5 0 ) ( >= lam14n6 0 ) ( >= lam14n7 0 ) ( > ( + ( * 1 lam14n0 ) ( * 1 lam14n1 ) ( * 1 lam14n2 ) ( * 2 lam14n6 ) ( * Nl5CT1 lam14n7 ) ( - 1 ( - ( + ( + ( + ( + ( + ( + RFN1_CT ( * RFN1_arg1 0 ) ) ( * RFN1_arg2 0 ) ) ( * RFN1_arg3 0 ) ) ( * RFN1_arg4 0 ) ) ( * RFN1_arg5 0 ) ) ( * RFN1_arg6 0 ) ) RFN1_CT ) ) ) 0 ) ( = ( + ( * ( - 1 ) lam14n3 ) ( * ( - 1 ) lam14n6 ) ( * Nl5arg11 lam14n7 ) ( - ( - RFN1_arg1 ) ) ) 0 ) ( = ( + ( * ( - 1 ) lam14n0 ) ( * ( - 1 ) lam14n1 ) ( * ( - 1 ) lam14n2 ) ( * ( - 1 ) lam14n6 ) ( * Nl5arg21 lam14n7 ) ( - ( - RFN1_arg2 ) ) ) 0 ) ( = ( + ( * Nl5arg31 lam14n7 ) ( - ( - RFN1_arg3 ) ) ) 0 ) ( = ( + ( * Nl5arg41 lam14n7 ) ( - ( - RFN1_arg4 ) ) ) 0 ) ( = ( + ( * Nl5arg51 lam14n7 ) ( - ( - RFN1_arg5 ) ) ) 0 ) ( = ( + ( * Nl5arg61 lam14n7 ) ( - ( - RFN1_arg6 ) ) ) 0 ) ( = ( + ( * 1 lam14n1 ) ( * ( - 1 ) lam14n4 ) ( - ( + 0 ( * RFN1_arg1 1 ) ) ) ) 0 ) ( = ( + ( * 1 lam14n2 ) ( * ( - 1 ) lam14n5 ) ( - ( + 0 ( * RFN1_arg2 1 ) ) ) ) 0 ) ( = ( - ( + 0 ( * RFN1_arg3 1 ) ) ) 0 ) ( = ( - ( + 0 ( * RFN1_arg4 1 ) ) ) 0 ) ( = ( - ( + 0 ( * RFN1_arg5 1 ) ) ) 0 ) ( = ( - ( + 0 ( * RFN1_arg6 1 ) ) ) 0 ) ) ( and ( >= lam18n0 0 ) ( >= lam18n1 0 ) ( >= lam18n2 0 ) ( >= lam18n3 0 ) ( >= lam18n4 0 ) ( >= lam18n5 0 ) ( >= lam18n6 0 ) ( >= lam18n7 0 ) ( >= lam18n8 0 ) ( >= lam18n9 0 ) ( > ( + ( * 1 lam18n0 ) ( * 1 lam18n1 ) ( * 1 lam18n2 ) ( * 1 lam18n3 ) ( * 2 lam18n8 ) ( * Nl5CT1 lam18n9 ) ( - 1 ( - ( + ( + ( + ( + ( + ( + RFN1_CT ( * RFN1_arg1 0 ) ) ( * RFN1_arg2 0 ) ) ( * RFN1_arg3 0 ) ) ( * RFN1_arg4 0 ) ) ( * RFN1_arg5 0 ) ) ( * RFN1_arg6 0 ) ) RFN1_CT ) ) ) 0 ) ( = ( + ( * ( - 1 ) lam18n4 ) ( * ( - 1 ) lam18n5 ) ( * ( - 1 ) lam18n8 ) ( * Nl5arg11 lam18n9 ) ( - ( - RFN1_arg1 ) ) ) 0 ) ( = ( + ( * ( - 1 ) lam18n0 ) ( * ( - 1 ) lam18n8 ) ( * Nl5arg21 lam18n9 ) ( - ( - RFN1_arg2 ) ) ) 0 ) ( = ( + ( * Nl5arg31 lam18n9 ) ( - ( - RFN1_arg3 ) ) ) 0 ) ( = ( + ( * Nl5arg41 lam18n9 ) ( - ( - RFN1_arg4 ) ) ) 0 ) ( = ( + ( * Nl5arg51 lam18n9 ) ( - ( - RFN1_arg5 ) ) ) 0 ) ( = ( + ( * Nl5arg61 lam18n9 ) ( - ( - RFN1_arg6 ) ) ) 0 ) ( = ( + ( * 1 lam18n1 ) ( * ( - 1 ) lam18n6 ) ( - ( + 0 ( * RFN1_arg1 1 ) ) ) ) 0 ) ( = ( + ( * 1 lam18n2 ) ( * ( - 1 ) lam18n7 ) ( - ( + 0 ( * RFN1_arg2 1 ) ) ) ) 0 ) ( = ( - ( + 0 ( * RFN1_arg3 1 ) ) ) 0 ) ( = ( - ( + 0 ( * RFN1_arg4 1 ) ) ) 0 ) ( = ( - ( + 0 ( * RFN1_arg5 1 ) ) ) 0 ) ( = ( - ( + 0 ( * RFN1_arg6 1 ) ) ) 0 ) ( = ( + ( * ( - 1 ) lam18n1 ) ( * ( - 1 ) lam18n2 ) ( * ( - 1 ) lam18n3 ) ( * 1 lam18n5 ) ) 0 ) ) ) ( or ( and ( and ( >= lam8n0 0 ) ( >= lam8n1 0 ) ( >= lam8n2 0 ) ( >= lam8n3 0 ) ( >= lam8n4 0 ) ( >= lam8n5 0 ) ( >= lam8n6 0 ) ( >= lam8n7 0 ) ( >= lam8n8 0 ) ( >= lam8n9 0 ) ( > ( + ( * 1 lam8n0 ) ( * 1 lam8n1 ) ( * 1 lam8n2 ) ( * 2 lam8n8 ) ( * Nl5CT1 lam8n9 ) ( - 1 ( - RFN1_CT ) ) ) 0 ) ( = ( + ( * ( - 1 ) lam8n3 ) ( * ( - 1 ) lam8n4 ) ( * ( - 1 ) lam8n8 ) ( * Nl5arg11 lam8n9 ) ( - ( - RFN1_arg1 ) ) ) 0 ) ( = ( + ( * ( - 1 ) lam8n5 ) ( * ( - 1 ) lam8n8 ) ( * Nl5arg21 lam8n9 ) ( - ( - RFN1_arg2 ) ) ) 0 ) ( = ( + ( * Nl5arg31 lam8n9 ) ( - ( - RFN1_arg3 ) ) ) 0 ) ( = ( + ( * Nl5arg41 lam8n9 ) ( - ( - RFN1_arg4 ) ) ) 0 ) ( = ( + ( * Nl5arg51 lam8n9 ) ( - ( - RFN1_arg5 ) ) ) 0 ) ( = ( + ( * Nl5arg61 lam8n9 ) ( - ( - RFN1_arg6 ) ) ) 0 ) ( = ( + ( * ( - 1 ) lam8n0 ) ( * ( - 1 ) lam8n1 ) ( * ( - 1 ) lam8n2 ) ( * 1 lam8n4 ) ) 0 ) ( = ( + ( * 1 lam8n1 ) ( * ( - 1 ) lam8n6 ) ) 0 ) ( = ( + ( * 1 lam8n2 ) ( * ( - 1 ) lam8n7 ) ) 0 ) ) ( and ( >= lam9n0 0 ) ( >= lam9n1 0 ) ( >= lam9n2 0 ) ( >= lam9n3 0 ) ( >= lam9n4 0 ) ( >= lam9n5 0 ) ( >= lam9n6 0 ) ( >= lam9n7 0 ) ( >= lam9n8 0 ) ( >= lam9n9 0 ) ( > ( + ( * 1 lam9n0 ) ( * 1 lam9n1 ) ( * 1 lam9n2 ) ( * 2 lam9n8 ) ( * Nl5CT1 lam9n9 ) ( - 1 ( + ( - ( + ( + ( + ( + ( + ( + RFN1_CT ( * RFN1_arg1 0 ) ) ( * RFN1_arg2 0 ) ) ( * RFN1_arg3 0 ) ) ( * RFN1_arg4 0 ) ) ( * RFN1_arg5 0 ) ) ( * RFN1_arg6 0 ) ) RFN1_CT ) 1 ) ) ) 0 ) ( = ( + ( * ( - 1 ) lam9n3 ) ( * ( - 1 ) lam9n4 ) ( * ( - 1 ) lam9n8 ) ( * Nl5arg11 lam9n9 ) ( - ( - RFN1_arg1 ) ) ) 0 ) ( = ( + ( * ( - 1 ) lam9n5 ) ( * ( - 1 ) lam9n8 ) ( * Nl5arg21 lam9n9 ) ( - ( - RFN1_arg2 ) ) ) 0 ) ( = ( + ( * Nl5arg31 lam9n9 ) ( - ( - RFN1_arg3 ) ) ) 0 ) ( = ( + ( * Nl5arg41 lam9n9 ) ( - ( - RFN1_arg4 ) ) ) 0 ) ( = ( + ( * Nl5arg51 lam9n9 ) ( - ( - RFN1_arg5 ) ) ) 0 ) ( = ( + ( * Nl5arg61 lam9n9 ) ( - ( - RFN1_arg6 ) ) ) 0 ) ( = ( + ( * ( - 1 ) lam9n0 ) ( * ( - 1 ) lam9n1 ) ( * ( - 1 ) lam9n2 ) ( * 1 lam9n4 ) ) 0 ) ( = ( + ( * 1 lam9n1 ) ( * ( - 1 ) lam9n6 ) ( - ( + 0 ( * RFN1_arg1 1 ) ) ) ) 0 ) ( = ( + ( * 1 lam9n2 ) ( * ( - 1 ) lam9n7 ) ( - ( + 0 ( * RFN1_arg2 1 ) ) ) ) 0 ) ( = ( - ( + 0 ( * RFN1_arg3 1 ) ) ) 0 ) ( = ( - ( + 0 ( * RFN1_arg4 1 ) ) ) 0 ) ( = ( - ( + 0 ( * RFN1_arg5 1 ) ) ) 0 ) ( = ( - ( + 0 ( * RFN1_arg6 1 ) ) ) 0 ) ) ) ( and ( and ( >= lam12n0 0 ) ( >= lam12n1 0 ) ( >= lam12n2 0 ) ( >= lam12n3 0 ) ( >= lam12n4 0 ) ( >= lam12n5 0 ) ( >= lam12n6 0 ) ( >= lam12n7 0 ) ( > ( + ( * 1 lam12n0 ) ( * 1 lam12n1 ) ( * 1 lam12n2 ) ( * 2 lam12n6 ) ( * Nl5CT1 lam12n7 ) ( - 1 ( - RFN1_CT ) ) ) 0 ) ( = ( + ( * ( - 1 ) lam12n3 ) ( * ( - 1 ) lam12n6 ) ( * Nl5arg11 lam12n7 ) ( - ( - RFN1_arg1 ) ) ) 0 ) ( = ( + ( * ( - 1 ) lam12n0 ) ( * ( - 1 ) lam12n1 ) ( * ( - 1 ) lam12n2 ) ( * ( - 1 ) lam12n6 ) ( * Nl5arg21 lam12n7 ) ( - ( - RFN1_arg2 ) ) ) 0 ) ( = ( + ( * Nl5arg31 lam12n7 ) ( - ( - RFN1_arg3 ) ) ) 0 ) ( = ( + ( * Nl5arg41 lam12n7 ) ( - ( - RFN1_arg4 ) ) ) 0 ) ( = ( + ( * Nl5arg51 lam12n7 ) ( - ( - RFN1_arg5 ) ) ) 0 ) ( = ( + ( * Nl5arg61 lam12n7 ) ( - ( - RFN1_arg6 ) ) ) 0 ) ( = ( + ( * 1 lam12n1 ) ( * ( - 1 ) lam12n4 ) ) 0 ) ( = ( + ( * 1 lam12n2 ) ( * ( - 1 ) lam12n5 ) ) 0 ) ) ( and ( >= lam13n0 0 ) ( >= lam13n1 0 ) ( >= lam13n2 0 ) ( >= lam13n3 0 ) ( >= lam13n4 0 ) ( >= lam13n5 0 ) ( >= lam13n6 0 ) ( >= lam13n7 0 ) ( > ( + ( * 1 lam13n0 ) ( * 1 lam13n1 ) ( * 1 lam13n2 ) ( * 2 lam13n6 ) ( * Nl5CT1 lam13n7 ) ( - 1 ( + ( - ( + ( + ( + ( + ( + ( + RFN1_CT ( * RFN1_arg1 0 ) ) ( * RFN1_arg2 0 ) ) ( * RFN1_arg3 0 ) ) ( * RFN1_arg4 0 ) ) ( * RFN1_arg5 0 ) ) ( * RFN1_arg6 0 ) ) RFN1_CT ) 1 ) ) ) 0 ) ( = ( + ( * ( - 1 ) lam13n3 ) ( * ( - 1 ) lam13n6 ) ( * Nl5arg11 lam13n7 ) ( - ( - RFN1_arg1 ) ) ) 0 ) ( = ( + ( * ( - 1 ) lam13n0 ) ( * ( - 1 ) lam13n1 ) ( * ( - 1 ) lam13n2 ) ( * ( - 1 ) lam13n6 ) ( * Nl5arg21 lam13n7 ) ( - ( - RFN1_arg2 ) ) ) 0 ) ( = ( + ( * Nl5arg31 lam13n7 ) ( - ( - RFN1_arg3 ) ) ) 0 ) ( = ( + ( * Nl5arg41 lam13n7 ) ( - ( - RFN1_arg4 ) ) ) 0 ) ( = ( + ( * Nl5arg51 lam13n7 ) ( - ( - RFN1_arg5 ) ) ) 0 ) ( = ( + ( * Nl5arg61 lam13n7 ) ( - ( - RFN1_arg6 ) ) ) 0 ) ( = ( + ( * 1 lam13n1 ) ( * ( - 1 ) lam13n4 ) ( - ( + 0 ( * RFN1_arg1 1 ) ) ) ) 0 ) ( = ( + ( * 1 lam13n2 ) ( * ( - 1 ) lam13n5 ) ( - ( + 0 ( * RFN1_arg2 1 ) ) ) ) 0 ) ( = ( - ( + 0 ( * RFN1_arg3 1 ) ) ) 0 ) ( = ( - ( + 0 ( * RFN1_arg4 1 ) ) ) 0 ) ( = ( - ( + 0 ( * RFN1_arg5 1 ) ) ) 0 ) ( = ( - ( + 0 ( * RFN1_arg6 1 ) ) ) 0 ) ) ) ( and ( and ( >= lam16n0 0 ) ( >= lam16n1 0 ) ( >= lam16n2 0 ) ( >= lam16n3 0 ) ( >= lam16n4 0 ) ( >= lam16n5 0 ) ( >= lam16n6 0 ) ( >= lam16n7 0 ) ( >= lam16n8 0 ) ( >= lam16n9 0 ) ( > ( + ( * 1 lam16n0 ) ( * 1 lam16n1 ) ( * 1 lam16n2 ) ( * 1 lam16n3 ) ( * 2 lam16n8 ) ( * Nl5CT1 lam16n9 ) ( - 1 ( - RFN1_CT ) ) ) 0 ) ( = ( + ( * ( - 1 ) lam16n4 ) ( * ( - 1 ) lam16n5 ) ( * ( - 1 ) lam16n8 ) ( * Nl5arg11 lam16n9 ) ( - ( - RFN1_arg1 ) ) ) 0 ) ( = ( + ( * ( - 1 ) lam16n0 ) ( * ( - 1 ) lam16n8 ) ( * Nl5arg21 lam16n9 ) ( - ( - RFN1_arg2 ) ) ) 0 ) ( = ( + ( * Nl5arg31 lam16n9 ) ( - ( - RFN1_arg3 ) ) ) 0 ) ( = ( + ( * Nl5arg41 lam16n9 ) ( - ( - RFN1_arg4 ) ) ) 0 ) ( = ( + ( * Nl5arg51 lam16n9 ) ( - ( - RFN1_arg5 ) ) ) 0 ) ( = ( + ( * Nl5arg61 lam16n9 ) ( - ( - RFN1_arg6 ) ) ) 0 ) ( = ( + ( * 1 lam16n1 ) ( * ( - 1 ) lam16n6 ) ) 0 ) ( = ( + ( * 1 lam16n2 ) ( * ( - 1 ) lam16n7 ) ) 0 ) ( = ( + ( * ( - 1 ) lam16n1 ) ( * ( - 1 ) lam16n2 ) ( * ( - 1 ) lam16n3 ) ( * 1 lam16n5 ) ) 0 ) ) ( and ( >= lam17n0 0 ) ( >= lam17n1 0 ) ( >= lam17n2 0 ) ( >= lam17n3 0 ) ( >= lam17n4 0 ) ( >= lam17n5 0 ) ( >= lam17n6 0 ) ( >= lam17n7 0 ) ( >= lam17n8 0 ) ( >= lam17n9 0 ) ( > ( + ( * 1 lam17n0 ) ( * 1 lam17n1 ) ( * 1 lam17n2 ) ( * 1 lam17n3 ) ( * 2 lam17n8 ) ( * Nl5CT1 lam17n9 ) ( - 1 ( + ( - ( + ( + ( + ( + ( + ( + RFN1_CT ( * RFN1_arg1 0 ) ) ( * RFN1_arg2 0 ) ) ( * RFN1_arg3 0 ) ) ( * RFN1_arg4 0 ) ) ( * RFN1_arg5 0 ) ) ( * RFN1_arg6 0 ) ) RFN1_CT ) 1 ) ) ) 0 ) ( = ( + ( * ( - 1 ) lam17n4 ) ( * ( - 1 ) lam17n5 ) ( * ( - 1 ) lam17n8 ) ( * Nl5arg11 lam17n9 ) ( - ( - RFN1_arg1 ) ) ) 0 ) ( = ( + ( * ( - 1 ) lam17n0 ) ( * ( - 1 ) lam17n8 ) ( * Nl5arg21 lam17n9 ) ( - ( - RFN1_arg2 ) ) ) 0 ) ( = ( + ( * Nl5arg31 lam17n9 ) ( - ( - RFN1_arg3 ) ) ) 0 ) ( = ( + ( * Nl5arg41 lam17n9 ) ( - ( - RFN1_arg4 ) ) ) 0 ) ( = ( + ( * Nl5arg51 lam17n9 ) ( - ( - RFN1_arg5 ) ) ) 0 ) ( = ( + ( * Nl5arg61 lam17n9 ) ( - ( - RFN1_arg6 ) ) ) 0 ) ( = ( + ( * 1 lam17n1 ) ( * ( - 1 ) lam17n6 ) ( - ( + 0 ( * RFN1_arg1 1 ) ) ) ) 0 ) ( = ( + ( * 1 lam17n2 ) ( * ( - 1 ) lam17n7 ) ( - ( + 0 ( * RFN1_arg2 1 ) ) ) ) 0 ) ( = ( - ( + 0 ( * RFN1_arg3 1 ) ) ) 0 ) ( = ( - ( + 0 ( * RFN1_arg4 1 ) ) ) 0 ) ( = ( - ( + 0 ( * RFN1_arg5 1 ) ) ) 0 ) ( = ( - ( + 0 ( * RFN1_arg6 1 ) ) ) 0 ) ( = ( + ( * ( - 1 ) lam17n1 ) ( * ( - 1 ) lam17n2 ) ( * ( - 1 ) lam17n3 ) ( * 1 lam17n5 ) ) 0 ) ) ) ) ) ( or ( and ( >= lam7n0 0 ) ( >= lam7n1 0 ) ( >= lam7n2 0 ) ( >= lam7n3 0 ) ( >= lam7n4 0 ) ( >= lam7n5 0 ) ( >= lam7n6 0 ) ( >= lam7n7 0 ) ( >= lam7n8 0 ) ( >= lam7n9 0 ) ( > ( + ( * 1 lam7n0 ) ( * 1 lam7n1 ) ( * 1 lam7n2 ) ( * 2 lam7n8 ) ( * Nl5CT1 lam7n9 ) ( - 1 ) ) 0 ) ( = ( + ( * ( - 1 ) lam7n3 ) ( * ( - 1 ) lam7n4 ) ( * ( - 1 ) lam7n8 ) ( * Nl5arg11 lam7n9 ) ) 0 ) ( = ( + ( * ( - 1 ) lam7n5 ) ( * ( - 1 ) lam7n8 ) ( * Nl5arg21 lam7n9 ) ) 0 ) ( = ( * Nl5arg31 lam7n9 ) 0 ) ( = ( * Nl5arg41 lam7n9 ) 0 ) ( = ( * Nl5arg51 lam7n9 ) 0 ) ( = ( * Nl5arg61 lam7n9 ) 0 ) ( = ( + ( * ( - 1 ) lam7n0 ) ( * ( - 1 ) lam7n1 ) ( * ( - 1 ) lam7n2 ) ( * 1 lam7n4 ) ) 0 ) ( = ( + ( * 1 lam7n1 ) ( * ( - 1 ) lam7n6 ) ) 0 ) ( = ( + ( * 1 lam7n2 ) ( * ( - 1 ) lam7n7 ) ) 0 ) ) ( and ( >= lam11n0 0 ) ( >= lam11n1 0 ) ( >= lam11n2 0 ) ( >= lam11n3 0 ) ( >= lam11n4 0 ) ( >= lam11n5 0 ) ( >= lam11n6 0 ) ( >= lam11n7 0 ) ( > ( + ( * 1 lam11n0 ) ( * 1 lam11n1 ) ( * 1 lam11n2 ) ( * 2 lam11n6 ) ( * Nl5CT1 lam11n7 ) ( - 1 ) ) 0 ) ( = ( + ( * ( - 1 ) lam11n3 ) ( * ( - 1 ) lam11n6 ) ( * Nl5arg11 lam11n7 ) ) 0 ) ( = ( + ( * ( - 1 ) lam11n0 ) ( * ( - 1 ) lam11n1 ) ( * ( - 1 ) lam11n2 ) ( * ( - 1 ) lam11n6 ) ( * Nl5arg21 lam11n7 ) ) 0 ) ( = ( * Nl5arg31 lam11n7 ) 0 ) ( = ( * Nl5arg41 lam11n7 ) 0 ) ( = ( * Nl5arg51 lam11n7 ) 0 ) ( = ( * Nl5arg61 lam11n7 ) 0 ) ( = ( + ( * 1 lam11n1 ) ( * ( - 1 ) lam11n4 ) ) 0 ) ( = ( + ( * 1 lam11n2 ) ( * ( - 1 ) lam11n5 ) ) 0 ) ) ( and ( >= lam15n0 0 ) ( >= lam15n1 0 ) ( >= lam15n2 0 ) ( >= lam15n3 0 ) ( >= lam15n4 0 ) ( >= lam15n5 0 ) ( >= lam15n6 0 ) ( >= lam15n7 0 ) ( >= lam15n8 0 ) ( >= lam15n9 0 ) ( > ( + ( * 1 lam15n0 ) ( * 1 lam15n1 ) ( * 1 lam15n2 ) ( * 1 lam15n3 ) ( * 2 lam15n8 ) ( * Nl5CT1 lam15n9 ) ( - 1 ) ) 0 ) ( = ( + ( * ( - 1 ) lam15n4 ) ( * ( - 1 ) lam15n5 ) ( * ( - 1 ) lam15n8 ) ( * Nl5arg11 lam15n9 ) ) 0 ) ( = ( + ( * ( - 1 ) lam15n0 ) ( * ( - 1 ) lam15n8 ) ( * Nl5arg21 lam15n9 ) ) 0 ) ( = ( * Nl5arg31 lam15n9 ) 0 ) ( = ( * Nl5arg41 lam15n9 ) 0 ) ( = ( * Nl5arg51 lam15n9 ) 0 ) ( = ( * Nl5arg61 lam15n9 ) 0 ) ( = ( + ( * 1 lam15n1 ) ( * ( - 1 ) lam15n6 ) ) 0 ) ( = ( + ( * 1 lam15n2 ) ( * ( - 1 ) lam15n7 ) ) 0 ) ( = ( + ( * ( - 1 ) lam15n1 ) ( * ( - 1 ) lam15n2 ) ( * ( - 1 ) lam15n3 ) ( * 1 lam15n5 ) ) 0 ) ) ) ))
(check-sat)
(exit)
